1 100 711
5 2 2 2 4 4 4 2 2 1
1
7
0 35.0 35.0 0.0 0.0 0 230
2 41.0 49.0 10.0 10.0 130 201 40 0 0 1 0 0 0 0 0 0 1
3 35.0 17.0 10.0 7.0 20 89 53 0 0 0 1 0 1 0 0 0 1
4 55.0 45.0 10.0 13.0 106 135 15 0 1 0 0 0 0 0 0 0 0
5 55.0 20.0 10.0 19.0 71 195 35 1 0 0 0 1 1 0 0 0 0
6 15.0 30.0 10.0 26.0 20 107 4 1 0 0 0 0 0 0 0 0 0
7 25.0 30.0 10.0 3.0 54 153 48 0 0 0 0 0 1 0 0 0 1
8 20.0 50.0 10.0 5.0 66 105 33 1 0 0 0 0 0 0 0 1 0
9 10.0 43.0 10.0 9.0 61 138 58 1 1 0 1 0 0 0 0 0 0
10 55.0 60.0 10.0 16.0 53 150 1 0 0 0 1 0 0 0 0 1 1
11 30.0 60.0 10.0 16.0 101 156 79 0 0 0 1 0 0 0 0 0 0
12 20.0 65.0 10.0 12.0 33 152 49 0 0 1 0 1 0 0 0 0 0
13 50.0 35.0 10.0 19.0 38 97 51 0 1 0 0 0 0 0 0 0 0
14 30.0 25.0 10.0 23.0 70 208 40 0 0 0 0 0 1 0 0 0 0
15 15.0 10.0 10.0 20.0 32 137 63 1 0 0 0 1 0 0 1 0 0
16 30.0 5.0 10.0 8.0 30 154 24 0 0 0 0 0 0 1 0 1 0
17 10.0 20.0 10.0 19.0 54 105 63 1 1 0 0 0 0 0 0 1 0
18 5.0 30.0 10.0 2.0 51 189 97 0 0 1 0 0 0 0 0 0 0
19 20.0 40.0 10.0 12.0 77 106 20 0 0 0 0 0 0 0 0 1 1
20 15.0 60.0 10.0 17.0 53 108 25 0 0 0 0 0 0 0 0 0 1
21 45.0 65.0 10.0 9.0 109 152 37 0 0 0 0 0 0 0 0 1 0
22 45.0 20.0 10.0 11.0 37 96 8 0 0 0 0 0 0 1 0 0 0
23 45.0 10.0 10.0 18.0 59 144 5 0 0 0 0 1 1 0 0 0 0
24 55.0 5.0 10.0 29.0 36 155 51 0 0 0 1 0 0 1 0 1 0
25 65.0 35.0 10.0 3.0 118 190 75 0 0 0 0 0 1 0 0 0 0
26 65.0 20.0 10.0 6.0 47 186 22 0 0 0 0 0 0 0 1 0 0
27 45.0 30.0 10.0 17.0 117 156 86 0 0 0 0 0 1 1 0 0 0
28 35.0 40.0 10.0 16.0 5 156 87 1 1 0 0 0 0 0 0 0 0
29 41.0 37.0 10.0 16.0 8 79 84 1 0 0 0 1 0 0 0 0 0
30 64.0 42.0 10.0 9.0 37 98 5 0 0 1 0 0 0 0 0 0 1
31 40.0 60.0 10.0 21.0 28 123 36 0 1 1 0 1 0 0 0 0 0
32 31.0 52.0 10.0 27.0 24 85 21 0 0 0 1 0 1 0 1 0 0
33 35.0 69.0 10.0 23.0 116 175 91 0 1 1 0 0 0 0 0 1 0
34 53.0 52.0 10.0 11.0 24 179 69 0 0 0 0 0 1 0 0 1 0
35 65.0 55.0 10.0 14.0 100 143 44 0 0 1 0 1 0 0 0 0 0
36 63.0 65.0 10.0 8.0 50 178 59 0 0 1 0 0 0 1 0 0 1
37 2.0 60.0 10.0 5.0 41 178 31 1 0 0 1 0 0 1 0 0 0
38 20.0 20.0 10.0 8.0 117 160 71 0 0 0 0 0 0 1 0 0 0
39 5.0 5.0 10.0 16.0 42 145 60 0 0 0 0 0 0 0 0 0 1
40 60.0 12.0 10.0 31.0 33 186 10 0 0 0 0 1 0 1 1 0 1
41 40.0 25.0 10.0 9.0 51 128 63 0 1 0 1 0 0 0 0 0 1
42 42.0 7.0 10.0 5.0 44 159 28 0 0 0 0 1 0 1 0 0 0
43 24.0 12.0 10.0 5.0 25 172 35 1 0 0 0 1 0 0 0 0 0
44 23.0 3.0 10.0 7.0 115 158 96 0 1 0 0 1 1 1 0 0 0
45 11.0 14.0 10.0 18.0 31 138 5 0 0 0 1 0 0 0 0 0 1
46 6.0 38.0 10.0 16.0 29 189 7 0 0 1 0 0 0 0 0 0 1
47 2.0 48.0 10.0 1.0 93 150 48 0 0 0 0 1 0 1 0 0 0
48 8.0 56.0 10.0 27.0 34 116 43 1 0 0 1 0 0 1 1 0 0
49 13.0 52.0 10.0 36.0 125 192 86 0 0 0 0 0 0 0 0 1 0
50 6.0 68.0 10.0 30.0 93 132 9 1 0 0 0 0 0 0 1 0 0
51 47.0 47.0 10.0 13.0 105 152 83 0 0 0 0 0 0 0 1 0 0
52 49.0 58.0 10.0 10.0 66 119 12 0 0 0 0 0 0 0 0 0 1
53 27.0 43.0 10.0 9.0 25 88 40 1 0 0 0 1 0 1 0 0 0
54 37.0 31.0 10.0 14.0 62 137 14 0 0 0 0 0 0 0 1 0 0
55 57.0 29.0 10.0 18.0 121 168 40 0 0 1 1 0 0 1 0 0 0
56 63.0 23.0 10.0 2.0 70 189 82 0 0 0 0 1 0 1 0 1 1
57 53.0 12.0 10.0 6.0 81 188 45 0 0 0 0 0 0 0 0 0 1
58 32.0 12.0 10.0 7.0 78 133 81 0 0 0 0 0 1 0 1 1 0
59 36.0 26.0 10.0 18.0 79 210 81 1 0 0 0 1 0 0 1 0 0
60 21.0 24.0 10.0 28.0 17 123 90 0 1 0 0 1 0 0 0 1 0
61 17.0 34.0 10.0 3.0 130 201 28 1 0 0 0 1 1 1 0 1 0
62 12.0 24.0 10.0 13.0 59 102 64 0 0 0 1 1 1 0 0 0 0
63 24.0 58.0 10.0 19.0 25 164 82 0 1 0 0 0 1 0 0 1 1
64 27.0 69.0 10.0 10.0 34 112 86 0 0 1 0 1 0 0 0 0 0
65 15.0 77.0 10.0 9.0 46 165 58 0 0 0 0 0 1 0 0 0 0
66 62.0 77.0 10.0 20.0 49 170 46 0 0 0 0 0 1 0 0 0 0
67 49.0 73.0 10.0 25.0 77 179 32 0 0 1 0 1 0 0 0 1 1
68 67.0 5.0 10.0 25.0 43 150 34 0 1 0 0 0 0 0 0 0 0
69 56.0 39.0 10.0 36.0 82 198 75 0 0 0 0 0 1 0 1 0 0
70 37.0 47.0 10.0 6.0 12 142 53 1 0 0 0 0 0 0 0 0 0
71 37.0 56.0 10.0 5.0 21 198 79 1 0 1 1 0 0 0 0 0 0
72 57.0 68.0 10.0 15.0 57 106 2 0 0 0 0 0 1 0 0 0 0
73 47.0 16.0 10.0 25.0 22 110 58 0 0 0 0 0 0 1 0 0 0
74 44.0 17.0 10.0 9.0 60 105 72 0 1 0 0 0 0 0 0 0 0
75 46.0 13.0 10.0 8.0 73 195 69 0 0 1 1 0 0 0 0 0 1
76 49.0 11.0 10.0 18.0 46 101 31 0 0 0 0 0 0 1 0 1 0
77 49.0 42.0 10.0 13.0 36 119 59 0 0 0 0 0 1 0 0 0 0
78 53.0 43.0 10.0 14.0 65 200 28 0 0 0 0 0 1 0 0 0 0
79 61.0 52.0 10.0 3.0 43 158 37 0 0 0 0 0 1 0 0 0 0
80 57.0 48.0 10.0 23.0 58 135 59 1 0 0 0 1 0 0 0 1 1
81 56.0 37.0 10.0 6.0 69 198 49 0 0 0 0 1 0 0 0 0 0
82 55.0 54.0 10.0 26.0 87 110 47 0 0 0 0 0 1 0 0 0 0
83 15.0 47.0 10.0 16.0 28 91 97 1 0 0 1 0 1 1 0 1 0
84 14.0 37.0 10.0 11.0 21 97 8 0 1 0 0 0 0 0 0 0 0
85 11.0 31.0 10.0 7.0 68 143 33 0 0 0 1 1 1 1 0 0 0
86 16.0 22.0 10.0 41.0 74 117 30 1 0 0 1 1 1 0 0 0 0
87 4.0 18.0 10.0 35.0 79 118 92 0 0 0 0 1 1 1 0 0 0
88 28.0 18.0 10.0 26.0 84 111 53 0 0 0 0 0 1 0 0 0 0
89 26.0 52.0 10.0 9.0 24 133 54 0 0 0 0 1 1 0 0 0 0
90 26.0 35.0 10.0 15.0 128 211 50 0 0 0 0 0 1 0 0 0 0
91 31.0 67.0 10.0 3.0 76 123 99 0 0 1 0 0 1 0 0 0 1
92 15.0 19.0 10.0 1.0 130 194 78 0 1 0 0 0 0 0 0 0 0
93 22.0 22.0 10.0 2.0 18 181 93 0 1 0 1 0 0 0 0 0 0
94 18.0 24.0 10.0 22.0 41 199 50 0 0 1 0 0 0 0 1 0 0
95 26.0 27.0 10.0 27.0 88 121 79 0 1 0 0 0 0 0 0 0 0
96 25.0 24.0 10.0 20.0 14 83 29 1 0 1 0 0 1 1 0 0 0
97 22.0 27.0 10.0 11.0 119 160 81 1 0 0 0 0 0 0 0 0 0
98 25.0 21.0 10.0 12.0 122 153 65 0 1 0 0 0 0 1 1 0 0
99 19.0 21.0 10.0 10.0 32 93 92 0 0 0 0 0 1 0 0 0 0
100 20.0 26.0 10.0 9.0 38 137 59 0 0 0 0 0 1 0 0 0 0
101 18.0 18.0 10.0 17.0 28 195 97 0 0 0 0 0 0 1 0 0 0